60
1 0 2
2 0 3
2 1 1
3 0 1
3 1 4
3 2 2
4 0 1
4 1 1
4 2 4
4 3 4
5 0 1
5 1 3
5 2 1
5 3 3
5 4 2
6 0 4
6 1 3
6 2 4
6 3 2
6 4 2
6 5 1
7 0 3
7 1 4
7 2 3
7 3 1
7 4 2
7 5 4
7 6 3
8 0 4
8 1 4
8 2 2
8 3 4
8 4 1
8 5 1
8 6 1
8 7 4
9 0 2
9 1 2
9 2 4
9 3 1
9 4 2
9 5 4
9 6 3
9 7 3
9 8 2
10 0 4
10 1 2
10 2 1
10 3 4
10 4 1
10 5 4
10 6 2
10 7 1
10 8 1
10 9 4
11 0 2
11 1 1
11 2 3
11 3 3
11 4 4
11 5 4
11 6 1
11 7 1
11 8 4
11 9 4
11 10 1
12 0 2
12 1 2
12 2 1
12 3 4
12 4 1
12 5 3
12 6 2
12 7 3
12 8 4
12 9 4
12 10 4
12 11 2
13 0 3
13 1 4
13 2 2
13 3 4
13 4 4
13 5 4
13 6 4
13 7 3
13 8 1
13 9 3
13 10 3
13 11 3
13 12 3
14 0 4
14 1 2
14 2 2
14 3 1
14 4 4
14 5 1
14 6 1
14 7 3
14 8 2
14 9 3
14 10 3
14 11 2
14 12 1
14 13 1
15 0 2
15 1 2
15 2 4
15 3 2
15 4 2
15 5 4
15 6 4
15 7 1
15 8 3
15 9 2
15 10 4
15 11 1
15 12 3
15 13 3
15 14 4
16 0 4
16 1 2
16 2 4
16 3 4
16 4 3
16 5 4
16 6 3
16 7 3
16 8 1
16 9 2
16 10 2
16 11 4
16 12 2
16 13 4
16 14 1
16 15 3
17 0 3
17 1 2
17 2 1
17 3 3
17 4 4
17 5 2
17 6 3
17 7 1
17 8 2
17 9 1
17 10 1
17 11 2
17 12 2
17 13 3
17 14 4
17 15 4
17 16 2
18 0 4
18 1 1
18 2 4
18 3 3
18 4 4
18 5 1
18 6 1
18 7 4
18 8 1
18 9 3
18 10 3
18 11 4
18 12 1
18 13 1
18 14 4
18 15 3
18 16 4
18 17 2
19 0 3
19 1 2
19 2 4
19 3 3
19 4 3
19 5 3
19 6 2
19 7 2
19 8 3
19 9 4
19 10 3
19 11 2
19 12 1
19 13 4
19 14 2
19 15 4
19 16 1
19 17 1
19 18 3
20 0 2
20 1 2
20 2 3
20 3 3
20 4 3
20 5 4
20 6 1
20 7 1
20 8 2
20 9 4
20 10 4
20 11 2
20 12 1
20 13 2
20 14 4
20 15 4
20 16 3
20 17 2
20 18 2
20 19 1
21 0 3
21 1 4
21 2 1
21 3 4
21 4 1
21 5 3
21 6 1
21 7 1
21 8 2
21 9 4
21 10 1
21 11 4
21 12 4
21 13 3
21 14 2
21 15 4
21 16 2
21 17 2
21 18 1
21 19 1
21 20 3
22 0 3
22 1 1
22 2 1
22 3 2
22 4 2
22 5 2
22 6 4
22 7 1
22 8 2
22 9 1
22 10 2
22 11 2
22 12 1
22 13 2
22 14 4
22 15 3
22 16 1
22 17 3
22 18 2
22 19 4
22 20 1
22 21 4
23 0 3
23 1 3
23 2 2
23 3 2
23 4 4
23 5 4
23 6 3
23 7 2
23 8 4
23 9 3
23 10 3
23 11 3
23 12 1
23 13 3
23 14 4
23 15 4
23 16 4
23 17 2
23 18 4
23 19 1
23 20 3
23 21 2
23 22 2
24 0 3
24 1 3
24 2 4
24 3 3
24 4 4
24 5 1
24 6 1
24 7 3
24 8 2
24 9 3
24 10 4
24 11 1
24 12 2
24 13 4
24 14 1
24 15 4
24 16 3
24 17 1
24 18 2
24 19 2
24 20 1
24 21 2
24 22 1
24 23 2
25 0 3
25 1 3
25 2 2
25 3 4
25 4 3
25 5 4
25 6 4
25 7 1
25 8 2
25 9 4
25 10 2
25 11 2
25 12 1
25 13 2
25 14 4
25 15 1
25 16 3
25 17 4
25 18 4
25 19 1
25 20 3
25 21 3
25 22 3
25 23 3
25 24 1
26 0 4
26 1 1
26 2 3
26 3 4
26 4 2
26 5 4
26 6 4
26 7 1
26 8 4
26 9 3
26 10 2
26 11 1
26 12 2
26 13 3
26 14 2
26 15 3
26 16 1
26 17 3
26 18 4
26 19 2
26 20 3
26 21 1
26 22 2
26 23 2
26 24 1
26 25 4
27 0 2
27 1 2
27 2 3
27 3 1
27 4 3
27 5 2
27 6 1
27 7 3
27 8 3
27 9 1
27 10 1
27 11 4
27 12 2
27 13 3
27 14 3
27 15 4
27 16 2
27 17 2
27 18 3
27 19 3
27 20 1
27 21 1
27 22 3
27 23 4
27 24 2
27 25 3
27 26 4
28 0 2
28 1 1
28 2 3
28 3 1
28 4 2
28 5 4
28 6 1
28 7 1
28 8 1
28 9 1
28 10 2
28 11 2
28 12 1
28 13 1
28 14 2
28 15 1
28 16 4
28 17 3
28 18 1
28 19 4
28 20 3
28 21 3
28 22 3
28 23 2
28 24 2
28 25 2
28 26 3
28 27 4
29 0 3
29 1 1
29 2 2
29 3 1
29 4 1
29 5 2
29 6 3
29 7 2
29 8 1
29 9 1
29 10 3
29 11 2
29 12 2
29 13 2
29 14 3
29 15 4
29 16 4
29 17 2
29 18 2
29 19 4
29 20 3
29 21 3
29 22 3
29 23 2
29 24 3
29 25 4
29 26 4
29 27 1
29 28 4
30 0 3
30 1 2
30 2 1
30 3 4
30 4 2
30 5 1
30 6 3
30 7 3
30 8 3
30 9 4
30 10 1
30 11 1
30 12 1
30 13 2
30 14 4
30 15 2
30 16 1
30 17 2
30 18 2
30 19 3
30 20 3
30 21 4
30 22 1
30 23 4
30 24 4
30 25 4
30 26 3
30 27 3
30 28 1
30 29 3
31 0 4
31 1 2
31 2 2
31 3 3
31 4 4
31 5 3
31 6 1
31 7 1
31 8 3
31 9 3
31 10 4
31 11 1
31 12 3
31 13 4
31 14 4
31 15 3
31 16 4
31 17 4
31 18 2
31 19 2
31 20 4
31 21 4
31 22 4
31 23 2
31 24 3
31 25 2
31 26 3
31 27 1
31 28 1
31 29 2
31 30 4
32 0 1
32 1 3
32 2 1
32 3 3
32 4 3
32 5 3
32 6 2
32 7 4
32 8 2
32 9 1
32 10 1
32 11 2
32 12 1
32 13 2
32 14 2
32 15 2
32 16 1
32 17 3
32 18 1
32 19 3
32 20 4
32 21 1
32 22 2
32 23 2
32 24 2
32 25 1
32 26 2
32 27 4
32 28 4
32 29 4
32 30 4
32 31 4
33 0 2
33 1 4
33 2 4
33 3 2
33 4 4
33 5 1
33 6 3
33 7 2
33 8 2
33 9 3
33 10 2
33 11 4
33 12 3
33 13 3
33 14 3
33 15 4
33 16 2
33 17 1
33 18 2
33 19 2
33 20 2
33 21 2
33 22 1
33 23 2
33 24 2
33 25 2
33 26 1
33 27 1
33 28 1
33 29 2
33 30 1
33 31 4
33 32 3
34 0 4
34 1 2
34 2 1
34 3 4
34 4 2
34 5 2
34 6 3
34 7 1
34 8 4
34 9 1
34 10 1
34 11 4
34 12 3
34 13 2
34 14 1
34 15 1
34 16 1
34 17 4
34 18 3
34 19 4
34 20 2
34 21 3
34 22 4
34 23 3
34 24 1
34 25 2
34 26 1
34 27 4
34 28 2
34 29 3
34 30 2
34 31 4
34 32 2
34 33 4
35 0 4
35 1 4
35 2 1
35 3 3
35 4 3
35 5 2
35 6 4
35 7 3
35 8 1
35 9 2
35 10 2
35 11 1
35 12 2
35 13 4
35 14 1
35 15 1
35 16 4
35 17 1
35 18 2
35 19 3
35 20 3
35 21 2
35 22 2
35 23 2
35 24 2
35 25 1
35 26 3
35 27 3
35 28 1
35 29 3
35 30 1
35 31 4
35 32 4
35 33 3
35 34 4
36 0 1
36 1 1
36 2 2
36 3 2
36 4 2
36 5 3
36 6 1
36 7 4
36 8 1
36 9 3
36 10 4
36 11 4
36 12 3
36 13 3
36 14 4
36 15 1
36 16 3
36 17 3
36 18 1
36 19 3
36 20 1
36 21 4
36 22 4
36 23 3
36 24 1
36 25 1
36 26 4
36 27 1
36 28 2
36 29 3
36 30 2
36 31 2
36 32 1
36 33 4
36 34 2
36 35 4
37 0 1
37 1 3
37 2 3
37 3 3
37 4 4
37 5 1
37 6 1
37 7 3
37 8 3
37 9 1
37 10 1
37 11 3
37 12 4
37 13 2
37 14 2
37 15 2
37 16 2
37 17 3
37 18 1
37 19 3
37 20 4
37 21 2
37 22 4
37 23 4
37 24 1
37 25 1
37 26 4
37 27 4
37 28 1
37 29 2
37 30 1
37 31 2
37 32 4
37 33 3
37 34 3
37 35 2
37 36 3
38 0 4
38 1 1
38 2 1
38 3 4
38 4 2
38 5 3
38 6 1
38 7 1
38 8 4
38 9 1
38 10 1
38 11 3
38 12 1
38 13 2
38 14 4
38 15 2
38 16 1
38 17 1
38 18 3
38 19 2
38 20 2
38 21 3
38 22 2
38 23 1
38 24 4
38 25 2
38 26 3
38 27 1
38 28 1
38 29 4
38 30 3
38 31 2
38 32 3
38 33 3
38 34 1
38 35 3
38 36 1
38 37 2
39 0 2
39 1 1
39 2 1
39 3 1
39 4 3
39 5 1
39 6 4
39 7 2
39 8 1
39 9 2
39 10 2
39 11 4
39 12 1
39 13 1
39 14 2
39 15 3
39 16 1
39 17 1
39 18 4
39 19 2
39 20 3
39 21 1
39 22 2
39 23 1
39 24 1
39 25 3
39 26 3
39 27 4
39 28 2
39 29 3
39 30 2
39 31 1
39 32 3
39 33 1
39 34 4
39 35 1
39 36 1
39 37 3
39 38 1
40 0 1
40 1 3
40 2 2
40 3 2
40 4 4
40 5 2
40 6 1
40 7 1
40 8 2
40 9 3
40 10 4
40 11 3
40 12 4
40 13 1
40 14 3
40 15 4
40 16 1
40 17 2
40 18 4
40 19 1
40 20 4
40 21 3
40 22 4
40 23 2
40 24 2
40 25 3
40 26 3
40 27 3
40 28 3
40 29 3
40 30 2
40 31 4
40 32 4
40 33 1
40 34 1
40 35 1
40 36 2
40 37 1
40 38 4
40 39 4
41 0 1
41 1 3
41 2 2
41 3 4
41 4 1
41 5 3
41 6 3
41 7 3
41 8 3
41 9 2
41 10 2
41 11 2
41 12 2
41 13 2
41 14 2
41 15 1
41 16 3
41 17 3
41 18 2
41 19 1
41 20 2
41 21 4
41 22 4
41 23 1
41 24 1
41 25 3
41 26 4
41 27 3
41 28 3
41 29 2
41 30 2
41 31 4
41 32 2
41 33 4
41 34 3
41 35 1
41 36 4
41 37 1
41 38 1
41 39 3
41 40 1
42 0 3
42 1 1
42 2 2
42 3 2
42 4 2
42 5 4
42 6 1
42 7 4
42 8 2
42 9 2
42 10 2
42 11 4
42 12 1
42 13 1
42 14 4
42 15 4
42 16 1
42 17 1
42 18 1
42 19 2
42 20 1
42 21 3
42 22 4
42 23 2
42 24 3
42 25 1
42 26 3
42 27 4
42 28 3
42 29 3
42 30 1
42 31 2
42 32 3
42 33 2
42 34 1
42 35 1
42 36 4
42 37 3
42 38 4
42 39 4
42 40 3
42 41 3
43 0 4
43 1 1
43 2 2
43 3 1
43 4 4
43 5 1
43 6 1
43 7 4
43 8 2
43 9 4
43 10 1
43 11 2
43 12 3
43 13 3
43 14 4
43 15 3
43 16 3
43 17 2
43 18 2
43 19 1
43 20 1
43 21 2
43 22 2
43 23 3
43 24 2
43 25 1
43 26 3
43 27 4
43 28 4
43 29 2
43 30 4
43 31 4
43 32 1
43 33 3
43 34 1
43 35 1
43 36 3
43 37 4
43 38 4
43 39 4
43 40 1
43 41 3
43 42 3
44 0 3
44 1 3
44 2 3
44 3 1
44 4 2
44 5 4
44 6 2
44 7 1
44 8 4
44 9 2
44 10 4
44 11 2
44 12 4
44 13 4
44 14 1
44 15 2
44 16 4
44 17 2
44 18 1
44 19 3
44 20 2
44 21 1
44 22 4
44 23 1
44 24 4
44 25 3
44 26 2
44 27 1
44 28 2
44 29 4
44 30 3
44 31 2
44 32 2
44 33 3
44 34 3
44 35 2
44 36 2
44 37 4
44 38 1
44 39 1
44 40 1
44 41 2
44 42 4
44 43 2
45 0 1
45 1 3
45 2 3
45 3 4
45 4 3
45 5 3
45 6 4
45 7 3
45 8 3
45 9 1
45 10 3
45 11 3
45 12 4
45 13 1
45 14 4
45 15 1
45 16 3
45 17 4
45 18 1
45 19 2
45 20 3
45 21 2
45 22 2
45 23 1
45 24 1
45 25 1
45 26 2
45 27 2
45 28 2
45 29 1
45 30 3
45 31 3
45 32 1
45 33 4
45 34 4
45 35 4
45 36 4
45 37 2
45 38 2
45 39 1
45 40 2
45 41 4
45 42 4
45 43 3
45 44 3
46 0 3
46 1 1
46 2 4
46 3 4
46 4 4
46 5 2
46 6 1
46 7 2
46 8 1
46 9 3
46 10 1
46 11 4
46 12 3
46 13 2
46 14 4
46 15 4
46 16 3
46 17 2
46 18 1
46 19 1
46 20 4
46 21 4
46 22 1
46 23 2
46 24 3
46 25 2
46 26 4
46 27 2
46 28 2
46 29 4
46 30 1
46 31 3
46 32 1
46 33 3
46 34 4
46 35 1
46 36 3
46 37 2
46 38 1
46 39 2
46 40 3
46 41 3
46 42 4
46 43 4
46 44 4
46 45 1
47 0 4
47 1 2
47 2 2
47 3 2
47 4 2
47 5 1
47 6 2
47 7 4
47 8 2
47 9 2
47 10 4
47 11 3
47 12 2
47 13 3
47 14 4
47 15 2
47 16 4
47 17 2
47 18 1
47 19 4
47 20 2
47 21 1
47 22 2
47 23 2
47 24 3
47 25 1
47 26 3
47 27 3
47 28 4
47 29 4
47 30 3
47 31 1
47 32 2
47 33 3
47 34 2
47 35 4
47 36 3
47 37 2
47 38 1
47 39 1
47 40 3
47 41 3
47 42 2
47 43 3
47 44 1
47 45 1
47 46 1
48 0 2
48 1 4
48 2 2
48 3 4
48 4 4
48 5 2
48 6 3
48 7 1
48 8 2
48 9 4
48 10 2
48 11 3
48 12 2
48 13 2
48 14 1
48 15 1
48 16 4
48 17 4
48 18 1
48 19 4
48 20 2
48 21 2
48 22 2
48 23 1
48 24 4
48 25 1
48 26 1
48 27 3
48 28 4
48 29 3
48 30 4
48 31 1
48 32 3
48 33 3
48 34 3
48 35 3
48 36 4
48 37 4
48 38 3
48 39 2
48 40 3
48 41 4
48 42 3
48 43 2
48 44 1
48 45 3
48 46 1
48 47 3
49 0 2
49 1 3
49 2 2
49 3 2
49 4 1
49 5 4
49 6 1
49 7 1
49 8 2
49 9 4
49 10 4
49 11 1
49 12 1
49 13 3
49 14 2
49 15 4
49 16 2
49 17 1
49 18 3
49 19 2
49 20 1
49 21 2
49 22 3
49 23 2
49 24 2
49 25 4
49 26 1
49 27 3
49 28 3
49 29 2
49 30 1
49 31 2
49 32 1
49 33 2
49 34 4
49 35 2
49 36 4
49 37 1
49 38 3
49 39 4
49 40 1
49 41 1
49 42 2
49 43 2
49 44 2
49 45 3
49 46 1
49 47 2
49 48 1
50 0 4
50 1 2
50 2 1
50 3 4
50 4 3
50 5 2
50 6 2
50 7 3
50 8 1
50 9 4
50 10 4
50 11 4
50 12 4
50 13 2
50 14 4
50 15 3
50 16 1
50 17 3
50 18 1
50 19 3
50 20 4
50 21 4
50 22 4
50 23 1
50 24 1
50 25 1
50 26 3
50 27 2
50 28 2
50 29 3
50 30 3
50 31 1
50 32 4
50 33 1
50 34 1
50 35 2
50 36 3
50 37 4
50 38 1
50 39 4
50 40 1
50 41 3
50 42 4
50 43 3
50 44 1
50 45 2
50 46 3
50 47 3
50 48 1
50 49 1
51 0 1
51 1 1
51 2 4
51 3 1
51 4 4
51 5 1
51 6 4
51 7 4
51 8 3
51 9 4
51 10 2
51 11 2
51 12 3
51 13 2
51 14 2
51 15 1
51 16 1
51 17 3
51 18 1
51 19 4
51 20 1
51 21 2
51 22 3
51 23 4
51 24 4
51 25 2
51 26 2
51 27 3
51 28 4
51 29 1
51 30 1
51 31 3
51 32 2
51 33 3
51 34 1
51 35 1
51 36 4
51 37 3
51 38 3
51 39 3
51 40 3
51 41 3
51 42 4
51 43 3
51 44 2
51 45 1
51 46 4
51 47 3
51 48 2
51 49 4
51 50 1
52 0 3
52 1 3
52 2 1
52 3 2
52 4 4
52 5 1
52 6 3
52 7 4
52 8 2
52 9 3
52 10 3
52 11 3
52 12 3
52 13 4
52 14 4
52 15 1
52 16 4
52 17 1
52 18 4
52 19 2
52 20 3
52 21 3
52 22 4
52 23 4
52 24 3
52 25 1
52 26 2
52 27 2
52 28 2
52 29 2
52 30 4
52 31 2
52 32 4
52 33 2
52 34 4
52 35 1
52 36 3
52 37 1
52 38 1
52 39 1
52 40 2
52 41 1
52 42 4
52 43 2
52 44 2
52 45 2
52 46 3
52 47 4
52 48 1
52 49 4
52 50 3
52 51 1
53 0 4
53 1 2
53 2 3
53 3 4
53 4 2
53 5 3
53 6 2
53 7 2
53 8 3
53 9 1
53 10 1
53 11 1
53 12 3
53 13 1
53 14 3
53 15 4
53 16 3
53 17 2
53 18 4
53 19 1
53 20 2
53 21 2
53 22 1
53 23 4
53 24 1
53 25 2
53 26 4
53 27 1
53 28 2
53 29 1
53 30 4
53 31 2
53 32 2
53 33 1
53 34 4
53 35 4
53 36 3
53 37 1
53 38 4
53 39 2
53 40 3
53 41 1
53 42 1
53 43 4
53 44 3
53 45 3
53 46 2
53 47 4
53 48 4
53 49 1
53 50 3
53 51 2
53 52 2
54 0 3
54 1 3
54 2 3
54 3 4
54 4 3
54 5 4
54 6 1
54 7 1
54 8 4
54 9 3
54 10 1
54 11 3
54 12 2
54 13 1
54 14 1
54 15 2
54 16 1
54 17 4
54 18 2
54 19 3
54 20 3
54 21 1
54 22 1
54 23 3
54 24 3
54 25 1
54 26 2
54 27 1
54 28 4
54 29 1
54 30 3
54 31 3
54 32 4
54 33 3
54 34 3
54 35 4
54 36 3
54 37 3
54 38 4
54 39 1
54 40 1
54 41 1
54 42 2
54 43 1
54 44 3
54 45 2
54 46 4
54 47 1
54 48 3
54 49 4
54 50 2
54 51 1
54 52 2
54 53 3
55 0 1
55 1 3
55 2 3
55 3 3
55 4 2
55 5 1
55 6 1
55 7 1
55 8 1
55 9 2
55 10 3
55 11 4
55 12 4
55 13 4
55 14 3
55 15 4
55 16 1
55 17 2
55 18 2
55 19 3
55 20 4
55 21 4
55 22 1
55 23 4
55 24 1
55 25 3
55 26 1
55 27 1
55 28 2
55 29 1
55 30 4
55 31 1
55 32 3
55 33 1
55 34 3
55 35 1
55 36 1
55 37 2
55 38 4
55 39 1
55 40 3
55 41 3
55 42 2
55 43 2
55 44 1
55 45 1
55 46 4
55 47 4
55 48 3
55 49 3
55 50 2
55 51 2
55 52 2
55 53 1
55 54 4
56 0 4
56 1 3
56 2 2
56 3 3
56 4 4
56 5 4
56 6 4
56 7 4
56 8 2
56 9 2
56 10 3
56 11 3
56 12 3
56 13 3
56 14 4
56 15 4
56 16 3
56 17 2
56 18 1
56 19 2
56 20 4
56 21 3
56 22 3
56 23 4
56 24 3
56 25 4
56 26 1
56 27 1
56 28 2
56 29 2
56 30 4
56 31 1
56 32 1
56 33 1
56 34 3
56 35 4
56 36 3
56 37 4
56 38 1
56 39 1
56 40 1
56 41 2
56 42 3
56 43 4
56 44 2
56 45 3
56 46 3
56 47 2
56 48 1
56 49 3
56 50 3
56 51 4
56 52 2
56 53 2
56 54 3
56 55 2
57 0 2
57 1 1
57 2 2
57 3 3
57 4 2
57 5 3
57 6 2
57 7 2
57 8 1
57 9 2
57 10 1
57 11 3
57 12 1
57 13 1
57 14 1
57 15 2
57 16 2
57 17 1
57 18 1
57 19 4
57 20 2
57 21 3
57 22 2
57 23 3
57 24 4
57 25 2
57 26 2
57 27 1
57 28 2
57 29 2
57 30 3
57 31 1
57 32 4
57 33 1
57 34 2
57 35 2
57 36 4
57 37 1
57 38 4
57 39 3
57 40 1
57 41 3
57 42 3
57 43 2
57 44 2
57 45 1
57 46 4
57 47 1
57 48 2
57 49 3
57 50 2
57 51 2
57 52 2
57 53 2
57 54 4
57 55 1
57 56 2
58 0 2
58 1 1
58 2 4
58 3 2
58 4 3
58 5 4
58 6 4
58 7 4
58 8 3
58 9 4
58 10 4
58 11 1
58 12 2
58 13 1
58 14 3
58 15 2
58 16 4
58 17 4
58 18 4
58 19 4
58 20 3
58 21 4
58 22 4
58 23 2
58 24 4
58 25 3
58 26 2
58 27 2
58 28 1
58 29 3
58 30 1
58 31 2
58 32 1
58 33 3
58 34 1
58 35 1
58 36 3
58 37 4
58 38 2
58 39 4
58 40 2
58 41 1
58 42 1
58 43 1
58 44 1
58 45 2
58 46 2
58 47 1
58 48 3
58 49 2
58 50 3
58 51 3
58 52 4
58 53 2
58 54 2
58 55 2
58 56 1
58 57 4
59 0 2
59 1 3
59 2 2
59 3 4
59 4 2
59 5 4
59 6 1
59 7 2
59 8 3
59 9 4
59 10 3
59 11 3
59 12 1
59 13 2
59 14 3
59 15 1
59 16 3
59 17 3
59 18 1
59 19 1
59 20 1
59 21 2
59 22 2
59 23 3
59 24 4
59 25 1
59 26 4
59 27 2
59 28 4
59 29 3
59 30 1
59 31 4
59 32 4
59 33 1
59 34 4
59 35 4
59 36 2
59 37 2
59 38 1
59 39 4
59 40 1
59 41 2
59 42 1
59 43 2
59 44 1
59 45 1
59 46 4
59 47 3
59 48 3
59 49 1
59 50 4
59 51 3
59 52 1
59 53 4
59 54 2
59 55 4
59 56 3
59 57 1
59 58 3
